(set-logic QF_NRA)
(declare-fun e () Real)
(declare-fun buscore2dollarsk_2 () Real)
(declare-fun auscore2dollarsk_3 () Real)
(declare-fun duscore2dollarsk_0 () Real)
(declare-fun cuscore2dollarsk_1 () Real)
(assert (= e 0.0))
(assert (= (* 2.0 auscore2dollarsk_3) buscore2dollarsk_2))
(assert (= cuscore2dollarsk_1 duscore2dollarsk_0))
(assert (not (= auscore2dollarsk_3 (* (/ 1.0 2.0) buscore2dollarsk_2))))
(check-sat)
(exit)
